CMD:
./solvers/bin/cadical --plain --no-reduce -t 1600 ./data/cnfs//shift_register_top_w16_d64_e0/shift_register_top_w16_d64_e0.63.cnf

c --- [ banner ] -------------------------------------------------------------
c 
c CaDiCaL SAT Solver
c Copyright (c) 2016-2024
c A. Biere, M. Fleury, N. Froleyks, K. Fazekas, F. Pollitt, T. Faller
c JKU Linz, University of Freiburg, TU Wien
c 
c Version 2.1.3 5296d3d2a9bf48c154ab2acb5e44625776d821bf
c g++ (Gentoo 12.3.1_p20230526 p2) 12.3.1 20230526 -Wall -Wextra -O3 -DNDEBUG
c Sat Aug 9 07:26:21 PDT 2025 Linux cedar2.int.cedar.computecanada.ca 5.14.0-362.24.2.el9_3.x86_64 x86_64
c 
c --- [ limit ] --------------------------------------------------------------
c 
c setting time limit to 1600 seconds real time (due to '-t 1600')
c 
c --- [ parsing input ] ------------------------------------------------------
c 
c reading DIMACS file from './data/cnfs//shift_register_top_w16_d64_e0/shift_register_top_w16_d64_e0.63.cnf'
c opening file to read './data/cnfs//shift_register_top_w16_d64_e0/shift_register_top_w16_d64_e0.63.cnf'
c found 'p cnf 574370 1712961' header
c parsed 1712961 clauses in 0.30 seconds process time
c 
c --- [ options ] ------------------------------------------------------------
c 
c   --compact=false                (different from default 'true')
c   --decompose=false              (different from default 'true')
c   --deduplicate=false            (different from default 'true')
c   --elim=false                   (different from default 'true')
c   --probe=false                  (different from default 'true')
c   --reduce=false                 (different from default 'true')
c   --subsume=false                (different from default 'true')
c   --ternary=false                (different from default 'true')
c   --transred=false               (different from default 'true')
c   --vivify=false                 (different from default 'true')
c 
c --- [ solving ] ------------------------------------------------------------
c 
c time measured in process time since initialization
c 
c  seconds   reductions  redundant   irredundant
c          MB    restarts       trail        variables
c           level   conflicts       glue           remaining
c 
c *  0.30 270  0 0   0    0    0  0% 0 1688701 551514 96%
c {  0.46 280  0 0   0    0    0  0% 0 1688701 551514 96%
c i  0.50 280 3010 0   0   11   10 97% 1 1688701 550881 96%
c i  0.51 280 2374 0   4   62   57 76% 2 1688701 550678 96%
c i  0.61 280 839 0  21  195  181 34% 3 1688701 550418 96%
c i  0.61 280 726 0  23  228  210 31% 3 1688701 550016 96%
c i  0.69 280 1012 0  39  404  365 42% 3 1688701 549919 96%
c i  0.73 280 920 0  51  447  403 39% 3 1688701 547293 95%
c i  0.74 280 766 0  53  535  485 34% 3 1688701 547290 95%
c i  0.84 280 759 0  68  679  619 35% 3 1688701 547272 95%
c i  0.85 280 756 0  68  682  620 35% 3 1688701 545690 95%
c i  0.85 280 755 0  68  683  620 35% 3 1688701 545673 95%
c i  0.85 280 753 0  68  685  621 35% 3 1688701 545649 95%
c i  0.85 280 751 0  68  686  621 35% 3 1688701 544954 95%
c i  0.85 280 750 0  68  687  621 35% 3 1688701 543531 95%
c i  1.04 280 728 0  97  990  896 36% 3 1688701 542877 95%
c i  1.04 280 725 0  97  994  899 36% 3 1688701 541929 94%
c }  1.05 280 720 0  97 1000  905 36% 3 1688701 541929 94%
c [  1.05 280  0 0  97 1000  905  0% 0 1688701 541929 94%
c O  1.07 280 537 0  97 1005  910 17% 4 1688701 541737 94%
c 
c  seconds    reductions  redundant   irredundant
c          MB     restarts       trail        variables
c            level   conflicts       glue           remaining
c 
c i  1.08 280 234 0  97 1032  932 11% 3 1688701 541190 94%
c i  1.30 282 1716 0  97 1224 1099 60% 8 1688701 541189 94%
c i  1.58 282 2033 0  97 1469 1314 70% 13 1688701 541188 94%
c i  2.71 282 1498 0  98 2414 2143 69% 14 1688701 541177 94%
c i  2.74 282 1449 0  98 2469 2189 69% 14 1688701 541173 94%
c i  2.80 282 1392 0  98 2538 2253 69% 13 1688701 541162 94%
c ]  3.13 282 1111 0  98 3001 2693 69% 12 1688701 541162 94%
c {  3.13 282 720 0  98 3001 2693 36% 3 1688701 541162 94%
c F  3.14 282 718 0  99 3006 2698 36% 3 1688701 541144 94%
c i  3.15 282 704 0 103 3025 2716 36% 3 1688701 540249 94%
c i  3.15 282 703 0 103 3026 2716 36% 3 1688701 539547 94%
c i  3.56 282 651 0 135 3229 2911 37% 4 1688701 537202 94%
c i  3.72 282 636 0 144 3263 2944 38% 4 1688701 537197 94%
c i  4.18 282 527 0 186 3551 3219 37% 4 1688701 537187 94%
c i  4.19 282 523 0 186 3563 3227 37% 4 1688701 537183 94%
c i  4.19 282 515 0 186 3592 3252 37% 4 1688701 537175 94%
c i  4.19 282 510 0 186 3608 3267 37% 4 1688701 537165 94%
c i  4.19 282 510 0 186 3610 3268 37% 4 1688701 537148 94%
c i  4.19 282 504 0 186 3630 3283 36% 4 1688701 537139 94%
c i  4.20 282 503 0 186 3635 3287 36% 4 1688701 537135 94%
c 
c  seconds    reductions  redundant   irredundant
c          MB     restarts       trail        variables
c            level   conflicts       glue           remaining
c 
c i  4.28 283 473 0 194 3749 3393 36% 4 1688701 537129 94%
c i  4.28 283 471 0 194 3756 3397 35% 4 1688701 536511 93%
c i  4.32 283 426 0 194 3947 3569 34% 4 1688701 536001 93%
c i  4.32 283 425 0 194 3952 3573 34% 4 1688701 535996 93%
... skipped 1078 lines ...
c i 1514.56 721 76 0 26896 1342771 1224504 38% 13 1310324 467370 81%
c i 1515.79 721 77 0 26953 1343093 1224807 38% 13 1310324 467364 81%
c i 1516.09 721 77 0 26966 1343142 1224853 38% 13 1310324 467310 81%
c i 1516.10 721 77 0 26966 1343143 1224853 38% 13 1310324 467263 81%
c i 1516.12 721 77 0 26966 1343144 1224853 38% 13 1310324 467223 81%
c i 1521.14 721 74 0 27182 1353571 1234678 37% 12 1310324 467217 81%
c i 1524.06 721 73 0 27187 1360120 1240971 37% 12 1310324 466526 81%
c i 1524.57 721 73 0 27187 1360690 1241529 37% 12 1310324 466520 81%
c i 1527.58 721 73 0 27324 1364238 1244888 37% 12 1310324 466514 81%
c i 1527.82 721 74 0 27324 1364540 1245172 37% 12 1310324 466508 81%
c i 1530.10 721 76 0 27390 1367083 1247632 37% 12 1310324 466434 81%
c i 1533.75 721 75 0 27451 1376617 1256761 37% 12 1310324 466421 81%
c i 1533.75 721 75 0 27452 1376619 1256761 37% 12 1310324 466402 81%
c 
c   seconds    reductions         redundant     irredundant
c            MB     restarts              trail         variables
c             level       conflicts           glue            remaining
c 
c i 1533.75 721 75 0 27452 1376621 1256761 37% 12 1310324 466387 81%
c i 1533.75 721 75 0 27453 1376622 1256761 37% 12 1310324 466383 81%
c i 1533.76 721 75 0 27453 1376627 1256762 37% 12 1310324 466341 81%
c B 1537.76 721 74 0 27744 1378093 1258028 37% 12 1310324 466327 81%
c i 1543.71 722 75 0 28093 1381310 1260951 37% 12 1310324 466233 81%
c i 1554.04 722 75 0 28674 1386158 1265277 38% 13 1310324 466130 81%
c i 1555.91 722 75 0 28797 1386639 1265701 38% 13 1310324 466116 81%
c i 1555.91 722 75 0 28798 1386640 1265701 38% 13 1310324 466110 81%
c i 1556.05 722 75 0 28804 1386660 1265719 38% 13 1310324 466104 81%
c i 1557.23 722 75 0 28871 1387212 1266183 38% 13 1310324 466098 81%
c i 1558.30 722 75 0 28929 1387627 1266562 38% 13 1310324 466092 81%
c i 1560.34 722 75 0 29043 1388332 1267177 38% 13 1310324 466003 81%
c i 1565.77 722 80 0 29165 1394000 1272534 39% 13 1310324 465895 81%
c i 1578.01 722 80 0 30008 1401295 1279058 39% 14 1310324 465804 81%
c i 1578.02 722 80 0 30008 1401297 1279056 39% 14 1310324 465784 81%
c i 1578.90 722 82 0 30008 1402429 1280126 39% 13 1310324 465780 81%
c i 1580.59 722 83 0 30009 1405261 1282869 40% 13 1310324 465725 81%
c i 1587.16 723 83 0 30261 1407758 1285127 40% 14 1310324 465707 81%
c i 1587.39 723 83 0 30274 1407812 1285177 40% 14 1310324 465701 81%
c i 1587.41 723 83 0 30275 1407815 1285179 40% 14 1310324 465695 81%
c 
c   seconds    reductions         redundant     irredundant
c            MB     restarts              trail         variables
c             level       conflicts           glue            remaining
c 
c i 1587.49 723 83 0 30280 1407837 1285198 40% 14 1310324 465689 81%
c } 1590.14 723 83 0 30477 1408741 1285937 40% 14 1310324 465689 81%
c ? 1590.14 723 83 0 30477 1408741 1285937 40% 14 1310324 465689 81%
c 
c --- [ result ] -------------------------------------------------------------
c 
c UNKNOWN
c 
c --- [ run-time profiling ] -------------------------------------------------
c 
c process time taken by individual solving procedures
c (percentage relative to process time for solving)
c 
c      1589.84  100.00% search
c       962.19   60.52% stable
c       620.33   39.02% unstable
c         7.16    0.45% walk
c         0.30    0.02% parse
c         0.16    0.01% lucky
c         0.00    0.00% simplify
c   =================================
c      1589.84   99.98% solve
c 
c last line shows process time for solving
c (percentage relative to total process time)
c 
c --- [ statistics ] ---------------------------------------------------------
c 
c chronological:            611873        43.43 %  of conflicts
c conflicts:               1408741       886.09    per second
c decisions:               9821002      6177.34    per second
c fixed:                    108680        18.92 %  of all variables
c learned:                 1383229        98.19 %  per conflict
c learned_lits:          137396234       100.00 %  learned literals
c minimized:                     0         0.00 %  learned literals
c shrunken:               37680533        27.42 %  learned literals
c minishrunken:           26236899        19.10 %  learned literals
c otfs:                       4048         0.29 %  of conflict
c propagations:        20484863722        12.88 M  per second
c rephased:                     52     27091.17    interval
c restarts:                  30477        46.22    interval
c stabilizing:                   5        48.40 %  of conflicts
c subsumed:                  79276         2.58 %  of all clauses
c strengthened:               3818         0.12 %  of all clauses
c walked:                       16     88046.31    interval
c 
c seconds are measured in process time for solving
c 
c --- [ resources ] ----------------------------------------------------------
c 
c total process time since initialization:      1590.14    seconds
c total real time since initialization:         1600.01    seconds
c maximum resident set size of process:         1016.88    MB
c 
c --- [ shutting down ] ------------------------------------------------------
c 
c exit 0
